(set-info :smt-lib-version 2.6)
(set-logic QF_NIA)
(set-info :source |
Generated by: Cristina Borralleras, Daniel Larraz, Albert Oliveras, Enric Rodriguez-Carbonell, Albert Rubio
Generated on: 2017-04-27
Generator: VeryMax
Application: Termination proving
Target solver: barcelogic
|)
(set-info :license "https://creativecommons.org/licenses/by/4.0/")
(set-info :category "industrial")
(set-info :status unsat)
(declare-fun Nl6main_x1 () Int)
(declare-fun Nl6main_y1 () Int)
(declare-fun lam0n0 () Int)
(declare-fun lam0n1 () Int)
(declare-fun lam0n2 () Int)
(declare-fun Nl6CT1 () Int)
(declare-fun lam1n0 () Int)
(declare-fun lam1n1 () Int)
(declare-fun lam1n2 () Int)
(declare-fun lam2n0 () Int)
(declare-fun lam2n1 () Int)
(declare-fun lam2n2 () Int)
(declare-fun lam2n3 () Int)
(declare-fun lam3n0 () Int)
(declare-fun lam3n1 () Int)
(declare-fun lam3n2 () Int)
(declare-fun lam3n3 () Int)
(declare-fun lam4n0 () Int)
(declare-fun lam4n1 () Int)
(declare-fun lam4n2 () Int)
(assert ( and ( <= ( - 2 ) Nl6main_x1 ) ( <= Nl6main_x1 2 ) ( <= ( - 2 ) Nl6main_y1 ) ( <= Nl6main_y1 2 ) ))
(assert ( or ( and ( >= lam0n0 0 ) ( >= lam0n1 0 ) ( >= lam0n2 0 ) ( > ( + ( * 1 lam0n0 ) ( * 1 lam0n1 ) ( * Nl6CT1 lam0n2 ) ( - 1 ) ) 0 ) ( = ( + ( * ( - 1 ) lam0n0 ) ( * Nl6main_x1 lam0n2 ) ) 0 ) ( = ( + ( * 1 lam0n0 ) ( * ( - 1 ) lam0n1 ) ( * Nl6main_y1 lam0n2 ) ) 0 ) ) ( and ( >= lam1n0 0 ) ( >= lam1n1 0 ) ( >= lam1n2 0 ) ( > ( + ( * 1 lam1n0 ) ( * 1 lam1n1 ) ( * Nl6CT1 lam1n2 ) ( - 1 ( + Nl6CT1 ( * Nl6main_y1 0 ) ) ) ) 0 ) ( = ( + ( * ( - 1 ) lam1n0 ) ( * Nl6main_x1 lam1n2 ) ( - ( + 0 Nl6main_x1 ) ) ) 0 ) ( = ( + ( * 1 lam1n0 ) ( * ( - 1 ) lam1n1 ) ( * Nl6main_y1 lam1n2 ) ( - ( + 0 ( * Nl6main_y1 2 ) ) ) ) 0 ) ) ))
(assert ( or ( and ( >= lam2n0 0 ) ( >= lam2n1 0 ) ( >= lam2n2 0 ) ( >= lam2n3 0 ) ( > ( + ( * 1 lam2n1 ) ( * 1 lam2n2 ) ( * Nl6CT1 lam2n3 ) ( - 1 ) ) 0 ) ( = ( + ( * 1 lam2n0 ) ( * ( - 1 ) lam2n1 ) ( * Nl6main_x1 lam2n3 ) ) 0 ) ( = ( + ( * ( - 1 ) lam2n0 ) ( * ( - 1 ) lam2n2 ) ( * Nl6main_y1 lam2n3 ) ) 0 ) ) ( and ( >= lam3n0 0 ) ( >= lam3n1 0 ) ( >= lam3n2 0 ) ( >= lam3n3 0 ) ( > ( + ( * 1 lam3n1 ) ( * 1 lam3n2 ) ( * Nl6CT1 lam3n3 ) ( - 1 ( + ( + Nl6CT1 ( * Nl6main_x1 ( - 1 ) ) ) ( * Nl6main_y1 1 ) ) ) ) 0 ) ( = ( + ( * 1 lam3n0 ) ( * ( - 1 ) lam3n1 ) ( * Nl6main_x1 lam3n3 ) ( - ( + 0 ( * Nl6main_x1 1 ) ) ) ) 0 ) ( = ( + ( * ( - 1 ) lam3n0 ) ( * ( - 1 ) lam3n2 ) ( * Nl6main_y1 lam3n3 ) ) 0 ) ) ))
(assert ( and ( >= lam4n0 0 ) ( >= lam4n1 0 ) ( > ( + ( * 1 lam4n1 ) ( - 1 ( + Nl6CT1 ( * Nl6main_y1 1 ) ) ) ) 0 ) ( = ( + ( * 1 lam4n2 ) ( - ( + 0 Nl6main_x1 ) ) ) 0 ) ( = ( + ( * ( - 1 ) lam4n0 ) ( * ( - 1 ) lam4n2 ) ) 0 ) ( = ( * ( - 1 ) lam4n1 ) 0 ) ))
(assert ( or ( and ( >= lam0n0 0 ) ( >= lam0n1 0 ) ( >= lam0n2 0 ) ( > ( + ( * 1 lam0n0 ) ( * 1 lam0n1 ) ( * Nl6CT1 lam0n2 ) ( - 1 ) ) 0 ) ( = ( + ( * ( - 1 ) lam0n0 ) ( * Nl6main_x1 lam0n2 ) ) 0 ) ( = ( + ( * 1 lam0n0 ) ( * ( - 1 ) lam0n1 ) ( * Nl6main_y1 lam0n2 ) ) 0 ) ) ( and ( >= lam2n0 0 ) ( >= lam2n1 0 ) ( >= lam2n2 0 ) ( >= lam2n3 0 ) ( > ( + ( * 1 lam2n1 ) ( * 1 lam2n2 ) ( * Nl6CT1 lam2n3 ) ( - 1 ) ) 0 ) ( = ( + ( * 1 lam2n0 ) ( * ( - 1 ) lam2n1 ) ( * Nl6main_x1 lam2n3 ) ) 0 ) ( = ( + ( * ( - 1 ) lam2n0 ) ( * ( - 1 ) lam2n2 ) ( * Nl6main_y1 lam2n3 ) ) 0 ) ) ))
(check-sat)
(exit)
